qbf_easy_train/easy_91_SAT.qdimacs
p cnf 24 56
a 17 20 5 0
e 1 2 3 4 6 7 8 9 10 11 12 13 14 15 16 18 19 21 22 23 24 0
3 -4 0
-3 -4 0
-5 -2 0
-5 -4 0
2 4 5 0
6 -1 0
6 5 0
1 -5 -6 0
-10 -9 0
-10 2 0
9 -2 10 0
-11 8 0
-11 -10 0
-8 10 11 0
-12 -7 0
-12 11 0
7 -11 12 0
7 -13 0
-7 -13 0
-15 10 0
-15 -14 0
-10 14 15 0
16 -13 0
16 15 0
13 -15 -16 0
17 -10 0
17 8 0
10 -8 -17 0
16 17 -18 0
-16 -17 -18 0
16 -17 18 0
-16 17 18 0
12 -18 -19 0
-12 18 -19 0
12 18 19 0
-12 -18 19 0
21 -8 0
21 -2 0
8 2 -21 0
-20 -21 -22 0
20 21 -22 0
-20 21 22 0
20 -21 22 0
-23 -19 0
-23 22 0
19 -22 23 0
6 23 -24 0
-6 -23 -24 0
6 -23 24 0
-6 23 24 0
-12 -7 11 -20 10 16 0
11 9 8 -12 20 15 17 0
-4 -10 -21 0
-15 7 -2 -24 0
21 13 -18 14 -6 0
24 0
