sat_easy_train/easy_91_SAT.dimacs
p cnf 118 392
-3 1 0
-3 -2 0
-1 2 3 0
-6 -4 0
-6 5 0
4 -5 6 0
-8 -1 0
-8 7 0
1 -7 8 0
-9 -6 0
-9 -8 0
6 8 9 0
10 -3 0
10 -9 0
3 9 -10 0
-11 -9 -12 0
11 9 -12 0
-11 9 12 0
11 -9 12 0
-13 -5 0
-13 -4 0
5 4 13 0
-14 12 0
-14 -13 0
-12 13 14 0
17 15 0
17 16 0
-15 -16 -17 0
19 -17 0
19 -18 0
17 18 -19 0
-20 -14 0
-20 -19 0
14 19 20 0
11 -20 -21 0
-11 20 -21 0
11 20 21 0
-11 -20 21 0
21 -22 -23 0
-21 22 -23 0
21 22 23 0
-21 -22 23 0
24 23 0
24 14 0
-23 -14 -24 0
-26 -25 0
-26 25 0
5 -26 -27 0
-5 26 -27 0
5 26 27 0
-5 -26 27 0
28 -1 0
28 -27 0
1 27 -28 0
-29 -27 0
-29 -28 0
27 28 29 0
-31 -26 0
-31 30 0
26 -30 31 0
32 -29 0
32 -31 0
29 31 -32 0
33 -26 0
33 2 0
26 -2 -33 0
-34 32 0
-34 -33 0
-32 33 34 0
24 -34 -35 0
-24 34 -35 0
24 34 35 0
-24 -34 35 0
10 -35 -36 0
-10 35 -36 0
10 35 36 0
-10 -35 36 0
-7 -2 -37 0
7 2 -37 0
-7 2 37 0
7 -2 37 0
5 -25 -38 0
-5 25 -38 0
5 25 38 0
-5 -25 38 0
38 15 -39 0
-38 -15 -39 0
38 -15 39 0
-38 15 39 0
40 -17 0
40 39 0
17 -39 -40 0
-41 25 0
-41 40 0
-25 -40 41 0
-42 -37 0
-42 41 0
37 -41 42 0
13 26 -43 0
-13 -26 -43 0
13 -26 43 0
-13 26 43 0
-44 -42 0
-44 -43 0
42 43 44 0
-46 -4 0
-46 45 0
4 -45 46 0
47 46 0
47 4 0
-46 -4 -47 0
48 -47 0
48 6 0
47 -6 -48 0
-49 -39 0
-49 46 0
39 -46 49 0
48 49 -50 0
-48 -49 -50 0
48 -49 50 0
-48 49 50 0
51 44 0
51 50 0
-44 -50 -51 0
52 11 0
52 26 0
-11 -26 -52 0
53 -51 0
53 -52 0
51 52 -53 0
-54 -13 0
-54 2 0
13 -2 54 0
55 -53 0
55 -54 0
53 54 -55 0
56 -36 0
56 -55 0
36 55 -56 0
-57 27 0
-57 13 0
-27 -13 57 0
-59 58 0
-59 -41 0
-58 41 59 0
61 -58 0
61 12 0
58 -12 -61 0
62 60 0
62 61 0
-60 -61 -62 0
-63 -22 0
-63 -6 0
22 6 63 0
64 17 0
64 37 0
-17 -37 -64 0
3 64 -65 0
-3 -64 -65 0
3 -64 65 0
-3 64 65 0
66 -65 0
66 -63 0
65 63 -66 0
63 66 -67 0
-63 -66 -67 0
63 -66 67 0
-63 66 67 0
46 42 -68 0
-46 -42 -68 0
46 -42 68 0
-46 42 68 0
49 -8 -69 0
-49 8 -69 0
49 8 69 0
-49 -8 69 0
-68 69 -70 0
68 -69 -70 0
-68 -69 70 0
68 69 70 0
71 -67 0
71 -70 0
67 70 -71 0
72 12 0
72 -22 0
-12 22 -72 0
73 40 0
73 72 0
-40 -72 -73 0
-45 73 -74 0
45 -73 -74 0
-45 -73 74 0
45 73 74 0
15 -2 -75 0
-15 2 -75 0
15 2 75 0
-15 -2 75 0
-76 -75 0
-76 -39 0
75 39 76 0
77 11 0
77 39 0
-11 -39 -77 0
58 77 -78 0
-58 -77 -78 0
58 -77 78 0
-58 77 78 0
-79 37 0
-79 -78 0
-37 78 79 0
76 -79 -80 0
-76 79 -80 0
76 79 80 0
-76 -79 80 0
-80 79 -81 0
80 -79 -81 0
-80 -79 81 0
80 79 81 0
82 -1 0
82 5 0
1 -5 -82 0
-38 82 -83 0
38 -82 -83 0
-38 -82 83 0
38 82 83 0
-83 -65 -84 0
83 65 -84 0
-83 65 84 0
83 -65 84 0
-85 -81 0
-85 84 0
81 -84 85 0
86 74 0
86 85 0
-74 -85 -86 0
-71 86 -87 0
71 -86 -87 0
-71 -86 87 0
71 86 87 0
-88 62 0
-88 -87 0
-62 87 88 0
89 -59 0
89 88 0
59 -88 -89 0
90 -5 0
90 -15 0
5 15 -90 0
91 3 0
91 11 0
-3 -11 -91 0
90 -91 -92 0
-90 91 -92 0
90 91 92 0
-90 -91 92 0
93 4 0
93 27 0
-4 -27 -93 0
92 93 -94 0
-92 -93 -94 0
92 -93 94 0
-92 93 94 0
96 -95 0
96 1 0
95 -1 -96 0
-27 7 -97 0
27 -7 -97 0
-27 -7 97 0
27 7 97 0
96 -97 -98 0
-96 97 -98 0
96 97 98 0
-96 -97 98 0
99 -94 0
99 -98 0
94 98 -99 0
-100 89 0
-100 -99 0
-89 99 100 0
57 100 -101 0
-57 -100 -101 0
57 -100 101 0
-57 100 101 0
-78 -4 -102 0
78 4 -102 0
-78 4 102 0
78 -4 102 0
-103 6 0
-103 -95 0
-6 95 103 0
104 -102 0
104 103 0
102 -103 -104 0
105 -64 0
105 -58 0
64 58 -105 0
-104 105 -106 0
104 -105 -106 0
-104 -105 106 0
104 105 106 0
107 -19 0
107 16 0
19 -16 -107 0
108 43 0
108 26 0
-43 -26 -108 0
109 -107 0
109 -108 0
107 108 -109 0
-110 -106 0
-110 -109 0
106 109 110 0
1 -63 -111 0
-1 63 -111 0
1 63 111 0
-1 -63 111 0
-45 46 -112 0
45 -46 -112 0
-45 -46 112 0
45 46 112 0
-113 -77 0
-113 64 0
77 -64 113 0
-114 112 0
-114 113 0
-112 -113 114 0
-111 -114 -115 0
111 114 -115 0
-111 114 115 0
111 -114 115 0
110 -115 -116 0
-110 115 -116 0
110 115 116 0
-110 -115 116 0
-117 -101 0
-117 116 0
101 -116 117 0
118 -56 0
118 -117 0
56 117 -118 0
3 58 60 15 90 0
94 -38 0
-52 86 13 -108 0
-108 116 -59 -78 -91 90 0
-1 -68 -20 104 0
-57 -111 46 0
-47 92 -5 0
100 62 -14 -65 11 -92 0
106 -79 0
79 25 17 -26 -58 0
82 -77 -60 0
-80 100 99 -117 -30 0
4 58 -65 39 -51 0
-44 25 -101 110 0
-118 65 45 59 110 0
-57 19 0
-13 -58 0
103 -21 -35 0
51 75 57 -55 -30 -25 0
28 -115 0
71 68 107 -88 30 104 0
74 -30 0
-88 31 26 76 0
6 -113 2 0
116 -109 0
99 -46 0
-30 26 89 7 41 44 0
10 -4 83 -34 81 0
-76 -37 -113 -48 0
72 110 111 -62 92 0
108 1 0
-1 -101 -118 -12 43 99 0
-104 50 -90 81 -49 110 0
11 -53 63 0
-43 118 25 0
56 -104 -43 -47 -118 13 0
-38 -15 0
9 -72 -83 0
97 84 31 77 80 14 0
-80 -73 -103 -76 -6 0
-10 -116 -4 -115 0
-84 -85 55 104 -96 -40 0
62 75 115 0
98 -77 86 0
18 -70 19 46 -27 0
-116 -67 -69 0
49 -10 -64 65 -1 -112 0
-103 34 11 10 68 6 0
-21 65 57 117 0
3 12 22 -17 0
-4 -31 -35 79 53 0
118 0
